
Gurobi 11.0.0 (win64, C++) logging started Tue Jul 29 14:40:43 2025

Set parameter TokenServer to value "141.76.38.119"
### START HEURISTIC APPROACH APPROACH ###
ProblemVariant: 1
### START PREPROCESSING ###
## Start start solution procedure ##
Start solution with 8 Vehicles and total costs 1464.28 in 27.5235 s.
### END PREPROCESSING ###
Route 0 0-4-10-18-19-1-0 : weight util 0.437500 | volume util 0.598844 | infeasible with packing heuristic | feasible with CP model
Route 1 0-2-12-11-32-0 : weight util 0.393750 | volume util 0.528267 | infeasible with packing heuristic | feasible with CP model
Route 2 0-31-17-15-0 : weight util 0.337500 | volume util 0.635778 | infeasible with packing heuristic | feasible with CP model
Route 3 0-14-25-27-16-28-0 : weight util 0.662500 | volume util 0.664444 | infeasible with packing heuristic | feasible with CP model
Route 4 0-21-20-23-24-22-0 : weight util 0.431250 | volume util 0.573467 | infeasible with packing heuristic | feasible with CP model
Route 5 0-30-29-26-13-0 : weight util 0.906250 | volume util 0.639222 | infeasible with packing heuristic | feasible with CP model
Route 6 0-3-7-9-8-6-5-0 : weight util 0.502500 | volume util 0.708667 | infeasible with packing heuristic | feasible with CP model
